NAME : grid-25 
COMMENT : 25 x 25 locations auto generated
TYPE : TSP
DIMENSION : 625
EDGE_WEIGHT_TYPE : EUC_2D
NODE_COORD_SECTION
1 0000 0000
2 0000 0001
3 0000 0002
4 0000 0003
5 0000 0004
6 0000 0005
7 0000 0006
8 0000 0007
9 0000 0008
10 0000 0009
11 0000 0010
12 0000 0011
13 0000 0012
14 0000 0013
15 0000 0014
16 0000 0015
17 0000 0016
18 0000 0017
19 0000 0018
20 0000 0019
21 0000 0020
22 0000 0021
23 0000 0022
24 0000 0023
25 0000 0024
26 0001 0000
27 0001 0001
28 0001 0002
29 0001 0003
30 0001 0004
31 0001 0005
32 0001 0006
33 0001 0007
34 0001 0008
35 0001 0009
36 0001 0010
37 0001 0011
38 0001 0012
39 0001 0013
40 0001 0014
41 0001 0015
42 0001 0016
43 0001 0017
44 0001 0018
45 0001 0019
46 0001 0020
47 0001 0021
48 0001 0022
49 0001 0023
50 0001 0024
51 0002 0000
52 0002 0001
53 0002 0002
54 0002 0003
55 0002 0004
56 0002 0005
57 0002 0006
58 0002 0007
59 0002 0008
60 0002 0009
61 0002 0010
62 0002 0011
63 0002 0012
64 0002 0013
65 0002 0014
66 0002 0015
67 0002 0016
68 0002 0017
69 0002 0018
70 0002 0019
71 0002 0020
72 0002 0021
73 0002 0022
74 0002 0023
75 0002 0024
76 0003 0000
77 0003 0001
78 0003 0002
79 0003 0003
80 0003 0004
81 0003 0005
82 0003 0006
83 0003 0007
84 0003 0008
85 0003 0009
86 0003 0010
87 0003 0011
88 0003 0012
89 0003 0013
90 0003 0014
91 0003 0015
92 0003 0016
93 0003 0017
94 0003 0018
95 0003 0019
96 0003 0020
97 0003 0021
98 0003 0022
99 0003 0023
100 0003 0024
101 0004 0000
102 0004 0001
103 0004 0002
104 0004 0003
105 0004 0004
106 0004 0005
107 0004 0006
108 0004 0007
109 0004 0008
110 0004 0009
111 0004 0010
112 0004 0011
113 0004 0012
114 0004 0013
115 0004 0014
116 0004 0015
117 0004 0016
118 0004 0017
119 0004 0018
120 0004 0019
121 0004 0020
122 0004 0021
123 0004 0022
124 0004 0023
125 0004 0024
126 0005 0000
127 0005 0001
128 0005 0002
129 0005 0003
130 0005 0004
131 0005 0005
132 0005 0006
133 0005 0007
134 0005 0008
135 0005 0009
136 0005 0010
137 0005 0011
138 0005 0012
139 0005 0013
140 0005 0014
141 0005 0015
142 0005 0016
143 0005 0017
144 0005 0018
145 0005 0019
146 0005 0020
147 0005 0021
148 0005 0022
149 0005 0023
150 0005 0024
151 0006 0000
152 0006 0001
153 0006 0002
154 0006 0003
155 0006 0004
156 0006 0005
157 0006 0006
158 0006 0007
159 0006 0008
160 0006 0009
161 0006 0010
162 0006 0011
163 0006 0012
164 0006 0013
165 0006 0014
166 0006 0015
167 0006 0016
168 0006 0017
169 0006 0018
170 0006 0019
171 0006 0020
172 0006 0021
173 0006 0022
174 0006 0023
175 0006 0024
176 0007 0000
177 0007 0001
178 0007 0002
179 0007 0003
180 0007 0004
181 0007 0005
182 0007 0006
183 0007 0007
184 0007 0008
185 0007 0009
186 0007 0010
187 0007 0011
188 0007 0012
189 0007 0013
190 0007 0014
191 0007 0015
192 0007 0016
193 0007 0017
194 0007 0018
195 0007 0019
196 0007 0020
197 0007 0021
198 0007 0022
199 0007 0023
200 0007 0024
201 0008 0000
202 0008 0001
203 0008 0002
204 0008 0003
205 0008 0004
206 0008 0005
207 0008 0006
208 0008 0007
209 0008 0008
210 0008 0009
211 0008 0010
212 0008 0011
213 0008 0012
214 0008 0013
215 0008 0014
216 0008 0015
217 0008 0016
218 0008 0017
219 0008 0018
220 0008 0019
221 0008 0020
222 0008 0021
223 0008 0022
224 0008 0023
225 0008 0024
226 0009 0000
227 0009 0001
228 0009 0002
229 0009 0003
230 0009 0004
231 0009 0005
232 0009 0006
233 0009 0007
234 0009 0008
235 0009 0009
236 0009 0010
237 0009 0011
238 0009 0012
239 0009 0013
240 0009 0014
241 0009 0015
242 0009 0016
243 0009 0017
244 0009 0018
245 0009 0019
246 0009 0020
247 0009 0021
248 0009 0022
249 0009 0023
250 0009 0024
251 0010 0000
252 0010 0001
253 0010 0002
254 0010 0003
255 0010 0004
256 0010 0005
257 0010 0006
258 0010 0007
259 0010 0008
260 0010 0009
261 0010 0010
262 0010 0011
263 0010 0012
264 0010 0013
265 0010 0014
266 0010 0015
267 0010 0016
268 0010 0017
269 0010 0018
270 0010 0019
271 0010 0020
272 0010 0021
273 0010 0022
274 0010 0023
275 0010 0024
276 0011 0000
277 0011 0001
278 0011 0002
279 0011 0003
280 0011 0004
281 0011 0005
282 0011 0006
283 0011 0007
284 0011 0008
285 0011 0009
286 0011 0010
287 0011 0011
288 0011 0012
289 0011 0013
290 0011 0014
291 0011 0015
292 0011 0016
293 0011 0017
294 0011 0018
295 0011 0019
296 0011 0020
297 0011 0021
298 0011 0022
299 0011 0023
300 0011 0024
301 0012 0000
302 0012 0001
303 0012 0002
304 0012 0003
305 0012 0004
306 0012 0005
307 0012 0006
308 0012 0007
309 0012 0008
310 0012 0009
311 0012 0010
312 0012 0011
313 0012 0012
314 0012 0013
315 0012 0014
316 0012 0015
317 0012 0016
318 0012 0017
319 0012 0018
320 0012 0019
321 0012 0020
322 0012 0021
323 0012 0022
324 0012 0023
325 0012 0024
326 0013 0000
327 0013 0001
328 0013 0002
329 0013 0003
330 0013 0004
331 0013 0005
332 0013 0006
333 0013 0007
334 0013 0008
335 0013 0009
336 0013 0010
337 0013 0011
338 0013 0012
339 0013 0013
340 0013 0014
341 0013 0015
342 0013 0016
343 0013 0017
344 0013 0018
345 0013 0019
346 0013 0020
347 0013 0021
348 0013 0022
349 0013 0023
350 0013 0024
351 0014 0000
352 0014 0001
353 0014 0002
354 0014 0003
355 0014 0004
356 0014 0005
357 0014 0006
358 0014 0007
359 0014 0008
360 0014 0009
361 0014 0010
362 0014 0011
363 0014 0012
364 0014 0013
365 0014 0014
366 0014 0015
367 0014 0016
368 0014 0017
369 0014 0018
370 0014 0019
371 0014 0020
372 0014 0021
373 0014 0022
374 0014 0023
375 0014 0024
376 0015 0000
377 0015 0001
378 0015 0002
379 0015 0003
380 0015 0004
381 0015 0005
382 0015 0006
383 0015 0007
384 0015 0008
385 0015 0009
386 0015 0010
387 0015 0011
388 0015 0012
389 0015 0013
390 0015 0014
391 0015 0015
392 0015 0016
393 0015 0017
394 0015 0018
395 0015 0019
396 0015 0020
397 0015 0021
398 0015 0022
399 0015 0023
400 0015 0024
401 0016 0000
402 0016 0001
403 0016 0002
404 0016 0003
405 0016 0004
406 0016 0005
407 0016 0006
408 0016 0007
409 0016 0008
410 0016 0009
411 0016 0010
412 0016 0011
413 0016 0012
414 0016 0013
415 0016 0014
416 0016 0015
417 0016 0016
418 0016 0017
419 0016 0018
420 0016 0019
421 0016 0020
422 0016 0021
423 0016 0022
424 0016 0023
425 0016 0024
426 0017 0000
427 0017 0001
428 0017 0002
429 0017 0003
430 0017 0004
431 0017 0005
432 0017 0006
433 0017 0007
434 0017 0008
435 0017 0009
436 0017 0010
437 0017 0011
438 0017 0012
439 0017 0013
440 0017 0014
441 0017 0015
442 0017 0016
443 0017 0017
444 0017 0018
445 0017 0019
446 0017 0020
447 0017 0021
448 0017 0022
449 0017 0023
450 0017 0024
451 0018 0000
452 0018 0001
453 0018 0002
454 0018 0003
455 0018 0004
456 0018 0005
457 0018 0006
458 0018 0007
459 0018 0008
460 0018 0009
461 0018 0010
462 0018 0011
463 0018 0012
464 0018 0013
465 0018 0014
466 0018 0015
467 0018 0016
468 0018 0017
469 0018 0018
470 0018 0019
471 0018 0020
472 0018 0021
473 0018 0022
474 0018 0023
475 0018 0024
476 0019 0000
477 0019 0001
478 0019 0002
479 0019 0003
480 0019 0004
481 0019 0005
482 0019 0006
483 0019 0007
484 0019 0008
485 0019 0009
486 0019 0010
487 0019 0011
488 0019 0012
489 0019 0013
490 0019 0014
491 0019 0015
492 0019 0016
493 0019 0017
494 0019 0018
495 0019 0019
496 0019 0020
497 0019 0021
498 0019 0022
499 0019 0023
500 0019 0024
501 0020 0000
502 0020 0001
503 0020 0002
504 0020 0003
505 0020 0004
506 0020 0005
507 0020 0006
508 0020 0007
509 0020 0008
510 0020 0009
511 0020 0010
512 0020 0011
513 0020 0012
514 0020 0013
515 0020 0014
516 0020 0015
517 0020 0016
518 0020 0017
519 0020 0018
520 0020 0019
521 0020 0020
522 0020 0021
523 0020 0022
524 0020 0023
525 0020 0024
526 0021 0000
527 0021 0001
528 0021 0002
529 0021 0003
530 0021 0004
531 0021 0005
532 0021 0006
533 0021 0007
534 0021 0008
535 0021 0009
536 0021 0010
537 0021 0011
538 0021 0012
539 0021 0013
540 0021 0014
541 0021 0015
542 0021 0016
543 0021 0017
544 0021 0018
545 0021 0019
546 0021 0020
547 0021 0021
548 0021 0022
549 0021 0023
550 0021 0024
551 0022 0000
552 0022 0001
553 0022 0002
554 0022 0003
555 0022 0004
556 0022 0005
557 0022 0006
558 0022 0007
559 0022 0008
560 0022 0009
561 0022 0010
562 0022 0011
563 0022 0012
564 0022 0013
565 0022 0014
566 0022 0015
567 0022 0016
568 0022 0017
569 0022 0018
570 0022 0019
571 0022 0020
572 0022 0021
573 0022 0022
574 0022 0023
575 0022 0024
576 0023 0000
577 0023 0001
578 0023 0002
579 0023 0003
580 0023 0004
581 0023 0005
582 0023 0006
583 0023 0007
584 0023 0008
585 0023 0009
586 0023 0010
587 0023 0011
588 0023 0012
589 0023 0013
590 0023 0014
591 0023 0015
592 0023 0016
593 0023 0017
594 0023 0018
595 0023 0019
596 0023 0020
597 0023 0021
598 0023 0022
599 0023 0023
600 0023 0024
601 0024 0000
602 0024 0001
603 0024 0002
604 0024 0003
605 0024 0004
606 0024 0005
607 0024 0006
608 0024 0007
609 0024 0008
610 0024 0009
611 0024 0010
612 0024 0011
613 0024 0012
614 0024 0013
615 0024 0014
616 0024 0015
617 0024 0016
618 0024 0017
619 0024 0018
620 0024 0019
621 0024 0020
622 0024 0021
623 0024 0022
624 0024 0023
625 0024 0024
